T = 10;
P = 2;
Exec = [
[660,930],
[670,740],
[820,630],
[740,970],
[770,970],
[980,890],
[620,950],
[880,690],
[870,510],
[870,910],
];
E = 14;
Edges = [
<1,2>,
<1,3>,
<1,4>,
<1,5>,
<2,7>,
<2,6>,
<3,8>,
<3,9>,
<4,9>,
<5,6>,
<6,10>,
<7,10>,
<8,10>,
<9,10>,
];
StartAfter = [
{2,3,4,5,6,7,8,9,10,}
{10,6,7,}
{8,9,10,}
{9,10,}
{10,6,}
{10,}
{10,}
{10,}
{10,}
{}
];
V = 10;
VarS = [23,22,22,20,26,21,20,24,25,21];
VarR = {
<10,2,22,1,1>,
<7,2,29,1,2>,
<7,1,26,1,3>,
<5,1,28,2,4>,
<7,3,24,1,4>,
<4,3,29,1,4>,
<2,1,25,2,5>,
<7,2,29,1,6>,
<4,1,25,1,7>,
<10,3,27,1,7>,
<5,1,30,2,8>,
<5,2,20,1,9>,
<7,1,30,1,9>,
<1,3,26,2,9>,
<5,2,25,2,10>,
<8,1,25,2,10>,
<7,1,23,1,10>,
};
SPMS = [100,100,];
LLB = [0,582,582,582,582,1204,1227,1212,1210,2094];
SLB = [582,1227,1212,1210,1204,2094,1580,1877,1720,2839];
LUB = [2325,1743,1885,1883,2257,1635,1098,1410,1255,745];
SUB = [1743,1098,1255,1255,1635,745,745,745,745,0];
UB = 4247;
